Route #1: 35 38 65 11 53 7 75 68 51 
Route #2: 3 32 17 39 66 59 19 54 13 
Route #3: 45 73 33 16 63 1 62 22 74 28 
Route #4: 49 24 56 41 42 64 61 2 30 
Route #5: 48 47 36 71 5 15 52 14 67 
Route #6: 44 25 55 31 10 72 58 40 8 34 
Route #7: 4 29 69 60 37 20 70 57 27 46 
Route #8: 26 12 9 18 50 23 43 6 21 
cost 1105.87
execution_time 30.436
